====================================================================================================================
File name: 200_40_90_9.def
Creation date: Mon Nov 24 20:40:31 CET 2014
Website: http://imopse.ii.pwr.edu.pl/
Reference:
Myszkowski P. B., Skowronski M. E., Olech L., Oslizlo K.,
Hybrid Ant Colony Optimization in solving Multi-Skill Resource-Constrained Project Scheduling Problem,
Soft Computing, DOI: DOI 10.1007/s00500-014-1455-x
====================================================================================================================
General characteristics:
Tasks: 200
Resources: 40
Precedence relations: 90
Number of skill types: 9
====================================================================================================================
ResourceID 	 Salary 	 Skills
1	 	 	63.1	 	 Q6: 2 	  Q1: 0 	  Q3: 1 	  Q7: 2 	  Q0: 1 	  Q5: 1
2	 	 	50.6	 	 Q7: 0 	  Q2: 0 	  Q6: 1 	  Q3: 1 	  Q1: 0 	  Q8: 1
3	 	 	84.1	 	 Q0: 0 	  Q1: 1 	  Q8: 1 	  Q7: 0 	  Q3: 0 	  Q6: 1
4	 	 	95.7	 	 Q6: 0 	  Q1: 2 	  Q2: 1 	  Q8: 1 	  Q0: 2 	  Q4: 2
5	 	 	25.9	 	 Q6: 0 	  Q4: 1 	  Q0: 0 	  Q5: 1 	  Q2: 0 	  Q7: 0
6	 	 	77.7	 	 Q8: 2 	  Q1: 0 	  Q5: 1 	  Q6: 0 	  Q4: 0 	  Q3: 1
7	 	 	72.6	 	 Q8: 1 	  Q5: 2 	  Q1: 2 	  Q4: 1 	  Q6: 2 	  Q3: 0
8	 	 	33.5	 	 Q3: 2 	  Q4: 0 	  Q2: 0 	  Q8: 0 	  Q0: 1 	  Q1: 1
9	 	 	20.6	 	 Q7: 0 	  Q2: 0 	  Q8: 2 	  Q5: 1 	  Q6: 0 	  Q3: 0
10	 	 	93.5	 	 Q7: 1 	  Q8: 0 	  Q1: 2 	  Q6: 0 	  Q0: 0 	  Q2: 1
11	 	 	17.9	 	 Q2: 2 	  Q1: 2 	  Q6: 2 	  Q4: 2 	  Q8: 0 	  Q3: 0
12	 	 	33.7	 	 Q1: 1 	  Q8: 0 	  Q4: 1 	  Q2: 1 	  Q5: 2 	  Q7: 1
13	 	 	14.0	 	 Q5: 1 	  Q7: 2 	  Q2: 1 	  Q1: 1 	  Q8: 0 	  Q4: 0
14	 	 	59.8	 	 Q5: 2 	  Q4: 0 	  Q7: 0 	  Q3: 1 	  Q8: 2 	  Q6: 0
15	 	 	63.6	 	 Q7: 2 	  Q1: 1 	  Q8: 2 	  Q0: 0 	  Q6: 1 	  Q2: 1
16	 	 	93.3	 	 Q6: 1 	  Q4: 0 	  Q2: 0 	  Q8: 0 	  Q5: 1 	  Q0: 0
17	 	 	89.5	 	 Q5: 2 	  Q7: 2 	  Q4: 2 	  Q1: 1 	  Q8: 2 	  Q0: 0
18	 	 	46.5	 	 Q4: 2 	  Q5: 1 	  Q1: 1 	  Q2: 0 	  Q6: 2 	  Q8: 2
19	 	 	28.0	 	 Q2: 2 	  Q0: 2 	  Q1: 0 	  Q4: 1 	  Q3: 0 	  Q5: 2
20	 	 	84.2	 	 Q4: 2 	  Q8: 1 	  Q6: 1 	  Q2: 1 	  Q5: 0 	  Q7: 1
21	 	 	89.0	 	 Q8: 0 	  Q2: 0 	  Q4: 2 	  Q3: 1 	  Q5: 1 	  Q7: 1
22	 	 	94.5	 	 Q6: 2 	  Q1: 2 	  Q5: 1 	  Q0: 1 	  Q8: 2 	  Q2: 1
23	 	 	51.2	 	 Q2: 2 	  Q3: 1 	  Q1: 1 	  Q4: 2 	  Q7: 2 	  Q6: 2
24	 	 	40.2	 	 Q2: 0 	  Q3: 0 	  Q4: 0 	  Q5: 0 	  Q6: 0 	  Q7: 0
25	 	 	98.0	 	 Q8: 2 	  Q1: 0 	  Q4: 2 	  Q0: 0 	  Q6: 0 	  Q5: 2
26	 	 	73.1	 	 Q4: 2 	  Q2: 1 	  Q3: 0 	  Q0: 2 	  Q6: 0 	  Q7: 2
27	 	 	25.9	 	 Q8: 2 	  Q2: 1 	  Q3: 1 	  Q5: 1 	  Q0: 1 	  Q1: 2
28	 	 	82.1	 	 Q6: 0 	  Q7: 0 	  Q8: 2 	  Q2: 1 	  Q5: 0 	  Q1: 2
29	 	 	70.2	 	 Q6: 2 	  Q5: 0 	  Q4: 2 	  Q0: 2 	  Q1: 2 	  Q2: 0
30	 	 	98.5	 	 Q2: 1 	  Q6: 1 	  Q5: 0 	  Q4: 2 	  Q0: 0 	  Q3: 0
31	 	 	51.2	 	 Q1: 0 	  Q6: 1 	  Q7: 1 	  Q8: 2 	  Q3: 2 	  Q5: 1
32	 	 	97.4	 	 Q2: 0 	  Q3: 1 	  Q0: 2 	  Q6: 0 	  Q1: 0 	  Q8: 1
33	 	 	17.3	 	 Q0: 2 	  Q1: 1 	  Q3: 0 	  Q8: 1 	  Q5: 0 	  Q4: 2
34	 	 	12.8	 	 Q5: 0 	  Q7: 2 	  Q3: 0 	  Q1: 0 	  Q2: 2 	  Q6: 1
35	 	 	42.3	 	 Q2: 2 	  Q3: 2 	  Q1: 2 	  Q6: 0 	  Q7: 1 	  Q0: 2
36	 	 	37.3	 	 Q2: 0 	  Q8: 2 	  Q7: 1 	  Q1: 0 	  Q3: 0 	  Q6: 2
37	 	 	86.7	 	 Q7: 1 	  Q3: 0 	  Q8: 0 	  Q5: 1 	  Q2: 2 	  Q6: 1
38	 	 	56.5	 	 Q0: 1 	  Q8: 2 	  Q4: 1 	  Q1: 2 	  Q3: 1 	  Q6: 0
39	 	 	35.9	 	 Q6: 2 	  Q4: 0 	  Q1: 0 	  Q2: 1 	  Q7: 2 	  Q0: 2
40	 	 	39.0	 	 Q0: 2 	  Q1: 0 	  Q5: 2 	  Q4: 0 	  Q3: 1 	  Q6: 0
====================================================================================================================
TaskID 	 Duration 	 Skill 	 Predecessor IDs
1	 	 	19	 Q0: 1
2	 	 	29	 Q4: 0
3	 	 	23	 Q3: 2
4	 	 	11	 Q2: 0
5	 	 	13	 Q6: 0
6	 	 	30	 Q3: 0
7	 	 	12	 Q8: 1
8	 	 	11	 Q4: 2
9	 	 	37	 Q5: 0
10	 	 	11	 Q0: 1
11	 	 	25	 Q0: 2
12	 	 	24	 Q4: 0
13	 	 	24	 Q8: 1
14	 	 	11	 Q5: 2
15	 	 	36	 Q1: 2
16	 	 	38	 Q1: 1
17	 	 	40	 Q6: 2
18	 	 	24	 Q7: 0
19	 	 	32	 Q1: 1
20	 	 	39	 Q4: 1
21	 	 	21	 Q4: 2
22	 	 	28	 Q5: 0
23	 	 	15	 Q7: 2
24	 	 	29	 Q1: 1
25	 	 	27	 Q5: 2
26	 	 	36	 Q2: 1
27	 	 	11	 Q0: 1	 	25
28	 	 	13	 Q3: 1
29	 	 	26	 Q6: 0
30	 	 	9	 Q8: 1
31	 	 	12	 Q8: 2
32	 	 	30	 Q3: 1
33	 	 	12	 Q8: 1
34	 	 	38	 Q1: 2
35	 	 	27	 Q8: 2
36	 	 	24	 Q5: 0
37	 	 	25	 Q7: 0
38	 	 	17	 Q5: 0
39	 	 	34	 Q7: 1
40	 	 	14	 Q3: 0	 	31
41	 	 	30	 Q5: 1
42	 	 	11	 Q0: 0
43	 	 	23	 Q1: 2
44	 	 	27	 Q2: 2	 	10
45	 	 	24	 Q0: 0
46	 	 	26	 Q4: 1
47	 	 	25	 Q3: 2	 	32
48	 	 	13	 Q6: 0	 	7
49	 	 	37	 Q8: 0	 	28
50	 	 	38	 Q3: 0	 	16
51	 	 	11	 Q2: 1	 	37
52	 	 	37	 Q8: 0
53	 	 	27	 Q1: 0
54	 	 	32	 Q6: 0
55	 	 	34	 Q3: 0
56	 	 	39	 Q4: 2	 	46
57	 	 	39	 Q6: 1
58	 	 	40	 Q5: 2
59	 	 	9	 Q5: 1
60	 	 	17	 Q3: 0
61	 	 	33	 Q7: 2
62	 	 	28	 Q2: 0
63	 	 	11	 Q1: 0
64	 	 	25	 Q5: 0
65	 	 	28	 Q3: 0
66	 	 	37	 Q2: 0	 	12
67	 	 	13	 Q2: 1
68	 	 	16	 Q3: 2	 	65
69	 	 	13	 Q1: 0	 	53
70	 	 	19	 Q3: 0
71	 	 	12	 Q5: 1
72	 	 	39	 Q0: 0
73	 	 	31	 Q8: 0	 	62	38
74	 	 	40	 Q5: 2
75	 	 	35	 Q3: 2
76	 	 	24	 Q7: 2	 	8
77	 	 	24	 Q7: 2
78	 	 	23	 Q8: 1	 	25
79	 	 	40	 Q7: 2
80	 	 	20	 Q5: 1
81	 	 	20	 Q1: 1	 	27
82	 	 	27	 Q8: 0	 	13	49
83	 	 	18	 Q4: 0
84	 	 	21	 Q2: 0	 	33
85	 	 	32	 Q5: 0
86	 	 	31	 Q7: 2
87	 	 	25	 Q0: 0
88	 	 	23	 Q0: 0
89	 	 	30	 Q4: 1
90	 	 	38	 Q1: 2
91	 	 	36	 Q8: 2
92	 	 	31	 Q2: 2
93	 	 	26	 Q3: 2	 	87
94	 	 	19	 Q2: 2
95	 	 	13	 Q2: 2	 	75
96	 	 	35	 Q1: 2
97	 	 	11	 Q4: 1
98	 	 	27	 Q6: 1
99	 	 	39	 Q0: 0
100	 	 	20	 Q8: 1
101	 	 	26	 Q6: 0
102	 	 	29	 Q2: 1
103	 	 	39	 Q1: 1	 	26
104	 	 	40	 Q1: 0
105	 	 	14	 Q5: 0
106	 	 	16	 Q2: 1
107	 	 	19	 Q8: 1
108	 	 	29	 Q3: 1	 	49	71
109	 	 	10	 Q4: 2
110	 	 	20	 Q7: 0	 	47
111	 	 	40	 Q0: 2
112	 	 	39	 Q6: 0
113	 	 	36	 Q7: 2
114	 	 	26	 Q0: 0	 	36	46
115	 	 	35	 Q0: 2	 	35
116	 	 	26	 Q7: 0	 	26
117	 	 	21	 Q2: 1
118	 	 	18	 Q2: 2
119	 	 	28	 Q1: 2
120	 	 	31	 Q5: 1	 	66	34
121	 	 	18	 Q7: 0
122	 	 	37	 Q4: 0	 	62
123	 	 	38	 Q1: 1
124	 	 	29	 Q5: 2	 	42
125	 	 	19	 Q3: 1
126	 	 	38	 Q5: 1	 	9
127	 	 	37	 Q3: 0	 	64
128	 	 	25	 Q3: 0
129	 	 	32	 Q5: 1	 	56
130	 	 	18	 Q5: 1
131	 	 	37	 Q7: 0
132	 	 	15	 Q2: 1
133	 	 	35	 Q2: 0
134	 	 	40	 Q5: 1	 	99	44	98
135	 	 	29	 Q5: 2
136	 	 	24	 Q2: 1
137	 	 	19	 Q6: 1
138	 	 	18	 Q3: 0	 	129
139	 	 	14	 Q8: 0
140	 	 	14	 Q1: 2	 	130
141	 	 	18	 Q6: 2
142	 	 	39	 Q0: 2
143	 	 	31	 Q7: 0
144	 	 	29	 Q4: 2
145	 	 	27	 Q5: 0
146	 	 	12	 Q7: 0
147	 	 	12	 Q0: 0
148	 	 	40	 Q6: 0	 	58
149	 	 	21	 Q0: 0
150	 	 	29	 Q1: 1	 	84	113
151	 	 	20	 Q4: 2	 	30
152	 	 	16	 Q2: 0
153	 	 	36	 Q5: 2
154	 	 	19	 Q7: 2	 	28	94
155	 	 	34	 Q7: 0	 	69
156	 	 	10	 Q8: 2	 	13	56
157	 	 	21	 Q7: 2	 	75
158	 	 	40	 Q0: 1	 	24	144	118
159	 	 	39	 Q0: 0	 	9
160	 	 	15	 Q0: 1	 	24	103	111	88
161	 	 	22	 Q1: 0
162	 	 	19	 Q7: 2
163	 	 	37	 Q7: 2	 	25
164	 	 	29	 Q6: 1
165	 	 	19	 Q8: 2	 	28
166	 	 	28	 Q2: 1	 	17	10	104
167	 	 	18	 Q2: 1
168	 	 	37	 Q1: 0	 	151
169	 	 	24	 Q5: 2	 	8	34
170	 	 	38	 Q8: 1
171	 	 	10	 Q3: 0
172	 	 	33	 Q0: 0
173	 	 	36	 Q2: 1	 	2
174	 	 	16	 Q1: 0
175	 	 	17	 Q0: 2
176	 	 	37	 Q3: 0
177	 	 	19	 Q4: 0	 	7	151
178	 	 	40	 Q5: 0	 	149
179	 	 	30	 Q7: 0	 	68
180	 	 	30	 Q3: 2	 	179	176
181	 	 	11	 Q4: 1	 	5
182	 	 	18	 Q4: 2	 	10	142
183	 	 	35	 Q0: 0	 	57
184	 	 	36	 Q1: 0	 	59
185	 	 	12	 Q8: 0	 	176
186	 	 	40	 Q6: 1
187	 	 	12	 Q6: 0	 	148
188	 	 	19	 Q4: 2	 	127
189	 	 	24	 Q5: 2	 	142
190	 	 	37	 Q2: 1
191	 	 	18	 Q7: 2	 	119
192	 	 	13	 Q3: 2	 	89
193	 	 	13	 Q5: 0	 	1
194	 	 	32	 Q4: 2
195	 	 	29	 Q4: 0
196	 	 	23	 Q3: 1	 	132
197	 	 	25	 Q2: 1
198	 	 	10	 Q0: 2
199	 	 	21	 Q6: 0	 	163	117
200	 	 	33	 Q4: 2
====================================================================================================================
